solution status: optimal solution found
objective value:                                    0
$not$benchmarks/c432.v:0$479_y                     -6 	(obj:0)
$not$benchmarks/c432.v:0$479_z                     25 	(obj:0)
$and$benchmarks/c432.v:71$213_y                    13 	(obj:0)
$and$benchmarks/c432.v:71$213_z                    14 	(obj:0)
$not$benchmarks/c432.v:0$478_y                    -22 	(obj:0)
$not$benchmarks/c432.v:0$478_z                    -25 	(obj:0)
$and$benchmarks/c432.v:108$278_y                   13 	(obj:0)
$and$benchmarks/c432.v:108$278_z                   20 	(obj:0)
$not$benchmarks/c432.v:0$476_y                     25 	(obj:0)
$not$benchmarks/c432.v:0$476_z                      6 	(obj:0)
$not$benchmarks/c432.v:0$486_y                      6 	(obj:0)
$not$benchmarks/c432.v:0$486_z                    -25 	(obj:0)
$not$benchmarks/c432.v:0$480_y                    -20 	(obj:0)
$not$benchmarks/c432.v:0$480_z                    -25 	(obj:0)
$not$benchmarks/c432.v:0$487_y                    -25 	(obj:0)
$not$benchmarks/c432.v:0$487_z                    -25 	(obj:0)
$and$benchmarks/c432.v:177$391_y                   23 	(obj:0)
$and$benchmarks/c432.v:177$391_z                   21 	(obj:0)
$and$benchmarks/c432.v:173$383_y                   23 	(obj:0)
$and$benchmarks/c432.v:173$383_z                   20 	(obj:0)
$not$benchmarks/c432.v:0$474_y                      6 	(obj:0)
$not$benchmarks/c432.v:0$474_z                     25 	(obj:0)
$or$benchmarks/c432.v:79$229_y                      5 	(obj:0)
$or$benchmarks/c432.v:79$229_z                     15 	(obj:0)
$and$benchmarks/c432.v:67$205_y                     8 	(obj:0)
$and$benchmarks/c432.v:67$205_z                    15 	(obj:0)
$and$benchmarks/c432.v:155$346_y                   11 	(obj:0)
$and$benchmarks/c432.v:155$346_z                   15 	(obj:0)
$not$benchmarks/c432.v:0$483_y                    -25 	(obj:0)
$not$benchmarks/c432.v:0$483_z                     -6 	(obj:0)
$and$benchmarks/c432.v:66$203_y                    15 	(obj:0)
$and$benchmarks/c432.v:66$203_z                    16 	(obj:0)
$not$benchmarks/c432.v:0$482_y                     25 	(obj:0)
$not$benchmarks/c432.v:0$482_z                     -6 	(obj:0)
$and$benchmarks/c432.v:174$385_y                   23 	(obj:0)
$and$benchmarks/c432.v:174$385_z                   19 	(obj:0)
$or$benchmarks/c432.v:65$201_y                     11 	(obj:0)
$or$benchmarks/c432.v:65$201_z                     25 	(obj:0)
$not$benchmarks/c432.v:0$475_y                     25 	(obj:0)
$not$benchmarks/c432.v:0$475_z                     20 	(obj:0)
$and$benchmarks/c432.v:187$423_y                   17 	(obj:0)
$and$benchmarks/c432.v:187$423_z                   20 	(obj:0)
$and$benchmarks/c432.v:63$197_y                    17 	(obj:0)
$and$benchmarks/c432.v:63$197_z                    15 	(obj:0)
$and$benchmarks/c432.v:149$337_y                   11 	(obj:0)
$and$benchmarks/c432.v:149$337_z                   16 	(obj:0)
$and$benchmarks/c432.v:182$401_y                   15 	(obj:0)
$and$benchmarks/c432.v:182$401_z                   19 	(obj:0)
$or$benchmarks/c432.v:76$223_y                     15 	(obj:0)
$or$benchmarks/c432.v:76$223_z                      5 	(obj:0)
$and$benchmarks/c432.v:158$351_y                   11 	(obj:0)
$and$benchmarks/c432.v:158$351_z                   13 	(obj:0)
$and$benchmarks/c432.v:186$419_y                   17 	(obj:0)
$and$benchmarks/c432.v:186$419_z                   16 	(obj:0)
$or$benchmarks/c432.v:83$237_y                      4 	(obj:0)
$or$benchmarks/c432.v:83$237_z                      4 	(obj:0)
$and$benchmarks/c432.v:70$211_y                     8 	(obj:0)
$and$benchmarks/c432.v:70$211_z                    14 	(obj:0)
$and$benchmarks/c432.v:178$393_y                   22 	(obj:0)
$and$benchmarks/c432.v:178$393_z                   20 	(obj:0)
$and$benchmarks/c432.v:111$284_y                   17 	(obj:0)
$and$benchmarks/c432.v:111$284_z                   22 	(obj:0)
$or$benchmarks/c432.v:89$249_y                      9 	(obj:0)
$or$benchmarks/c432.v:89$249_z                     12 	(obj:0)
$or$benchmarks/c432.v:81$233_y                     22 	(obj:0)
$or$benchmarks/c432.v:81$233_z                     15 	(obj:0)
$and$benchmarks/c432.v:72$215_y                     7 	(obj:0)
$and$benchmarks/c432.v:72$215_z                    16 	(obj:0)
$and$benchmarks/c432.v:189$431_y                   17 	(obj:0)
$and$benchmarks/c432.v:189$431_z                   14 	(obj:0)
$and$benchmarks/c432.v:157$349_y                   10 	(obj:0)
$and$benchmarks/c432.v:157$349_z                   12 	(obj:0)
$and$benchmarks/c432.v:109$280_y                   17 	(obj:0)
$and$benchmarks/c432.v:109$280_z                   21 	(obj:0)
$and$benchmarks/c432.v:188$427_y                   19 	(obj:0)
$and$benchmarks/c432.v:188$427_z                   13 	(obj:0)
$not$benchmarks/c432.v:0$488_y                      9 	(obj:0)
$not$benchmarks/c432.v:0$488_z                    -25 	(obj:0)
$not$benchmarks/c432.v:0$477_y                     25 	(obj:0)
$not$benchmarks/c432.v:0$477_z                    -25 	(obj:0)
$and$benchmarks/c432.v:73$217_y                     9 	(obj:0)
$and$benchmarks/c432.v:73$217_z                    22 	(obj:0)
$and$benchmarks/c432.v:104$271_y                   16 	(obj:0)
$and$benchmarks/c432.v:104$271_z                   20 	(obj:0)
$or$benchmarks/c432.v:87$245_y                      7 	(obj:0)
$or$benchmarks/c432.v:87$245_z                      6 	(obj:0)
$or$benchmarks/c432.v:74$219_y                     11 	(obj:0)
$or$benchmarks/c432.v:74$219_z                      8 	(obj:0)
$and$benchmarks/c432.v:185$415_y                   17 	(obj:0)
$and$benchmarks/c432.v:185$415_z                   19 	(obj:0)
$and$benchmarks/c432.v:179$395_y                   20 	(obj:0)
$and$benchmarks/c432.v:179$395_z                   17 	(obj:0)
$or$benchmarks/c432.v:80$231_y                     14 	(obj:0)
$or$benchmarks/c432.v:80$231_z                      5 	(obj:0)
$or$benchmarks/c432.v:82$235_y                     14 	(obj:0)
$or$benchmarks/c432.v:82$235_z                      4 	(obj:0)
$and$benchmarks/c432.v:107$276_y                   16 	(obj:0)
$and$benchmarks/c432.v:107$276_z                   23 	(obj:0)
$and$benchmarks/c432.v:151$340_y                   11 	(obj:0)
$and$benchmarks/c432.v:151$340_z                   12 	(obj:0)
$and$benchmarks/c432.v:183$407_y                   17 	(obj:0)
$and$benchmarks/c432.v:183$407_z                   18 	(obj:0)
$and$benchmarks/c432.v:181$399_y                   22 	(obj:0)
$and$benchmarks/c432.v:181$399_z                   17 	(obj:0)
$and$benchmarks/c432.v:147$334_y                    9 	(obj:0)
$and$benchmarks/c432.v:147$334_z                   16 	(obj:0)
$and$benchmarks/c432.v:153$343_y                   10 	(obj:0)
$and$benchmarks/c432.v:153$343_z                   16 	(obj:0)
$and$benchmarks/c432.v:68$207_y                    15 	(obj:0)
$and$benchmarks/c432.v:68$207_z                    24 	(obj:0)
$and$benchmarks/c432.v:180$397_y                   19 	(obj:0)
$and$benchmarks/c432.v:180$397_z                   18 	(obj:0)
$and$benchmarks/c432.v:159$353_y                    9 	(obj:0)
$and$benchmarks/c432.v:159$353_z                   15 	(obj:0)
$or$benchmarks/c432.v:84$239_y                     23 	(obj:0)
$or$benchmarks/c432.v:84$239_z                      4 	(obj:0)
$not$benchmarks/c432.v:0$473_y                     24 	(obj:0)
$not$benchmarks/c432.v:0$473_z                    -25 	(obj:0)
$and$benchmarks/c432.v:69$209_y                    15 	(obj:0)
$and$benchmarks/c432.v:69$209_z                    14 	(obj:0)
$or$benchmarks/c432.v:77$225_y                     13 	(obj:0)
$or$benchmarks/c432.v:77$225_z                     15 	(obj:0)
$or$benchmarks/c432.v:75$221_y                     12 	(obj:0)
$or$benchmarks/c432.v:75$221_z                     18 	(obj:0)
$and$benchmarks/c432.v:100$265_y                   17 	(obj:0)
$and$benchmarks/c432.v:100$265_z                   23 	(obj:0)
$or$benchmarks/c432.v:78$227_y                     15 	(obj:0)
$or$benchmarks/c432.v:78$227_z                     15 	(obj:0)
$not$benchmarks/c432.v:0$472_y                     11 	(obj:0)
$not$benchmarks/c432.v:0$472_z                    -25 	(obj:0)
$not$benchmarks/c432.v:0$485_y                     25 	(obj:0)
$not$benchmarks/c432.v:0$485_z                     25 	(obj:0)
$and$benchmarks/c432.v:106$274_y                   16 	(obj:0)
$and$benchmarks/c432.v:106$274_z                   24 	(obj:0)
$and$benchmarks/c432.v:184$411_y                   19 	(obj:0)
$and$benchmarks/c432.v:184$411_z                   14 	(obj:0)
$not$benchmarks/c432.v:0$484_y                     25 	(obj:0)
$not$benchmarks/c432.v:0$484_z                     22 	(obj:0)
$or$benchmarks/c432.v:85$241_y                     13 	(obj:0)
$or$benchmarks/c432.v:85$241_z                      4 	(obj:0)
$and$benchmarks/c432.v:102$268_y                   17 	(obj:0)
$and$benchmarks/c432.v:102$268_z                   24 	(obj:0)
$not$benchmarks/c432.v:0$471_y                    -25 	(obj:0)
$not$benchmarks/c432.v:0$471_z                     25 	(obj:0)
$and$benchmarks/c432.v:190$435_y                   16 	(obj:0)
$and$benchmarks/c432.v:190$435_z                   14 	(obj:0)
$and$benchmarks/c432.v:160$355_y                   11 	(obj:0)
$and$benchmarks/c432.v:160$355_z                   14 	(obj:0)
$and$benchmarks/c432.v:110$282_y                   16 	(obj:0)
$and$benchmarks/c432.v:110$282_z                   22 	(obj:0)
$and$benchmarks/c432.v:175$387_y                   23 	(obj:0)
$and$benchmarks/c432.v:175$387_z                   18 	(obj:0)
$and$benchmarks/c432.v:176$389_y                   23 	(obj:0)
$and$benchmarks/c432.v:176$389_z                   17 	(obj:0)
$or$benchmarks/c432.v:64$199_y                     21 	(obj:0)
$or$benchmarks/c432.v:64$199_z                     23 	(obj:0)
$or$benchmarks/c432.v:88$247_y                     -1 	(obj:0)
$or$benchmarks/c432.v:88$247_z                     16 	(obj:0)
$or$benchmarks/c432.v:86$243_y                     -3 	(obj:0)
$or$benchmarks/c432.v:86$243_z                     16 	(obj:0)
$not$benchmarks/c432.v:0$481_y                     -6 	(obj:0)
$not$benchmarks/c432.v:0$481_z                    -25 	(obj:0)
